(set-info :smt-lib-version 2.6)
(set-logic QF_NIA)
(set-info :source |AProve team, see http://aprove.informatik.rwth-aachen.de/, submitted for SMT-COMP 2014|)
(set-info :category "industrial")
(set-info :status sat)
(declare-fun a__4 () Int)
(declare-fun a__2 () Int)
(declare-fun a__6 () Int)
(declare-fun a__9 () Int)
(declare-fun a__12 () Int)
(declare-fun a__14 () Int)
(declare-fun a__18 () Int)
(declare-fun a__22 () Int)
(declare-fun a__26 () Int)
(declare-fun a__29 () Int)
(declare-fun a__31 () Int)
(declare-fun a__35 () Int)
(declare-fun a__39 () Int)
(declare-fun a__42 () Int)
(declare-fun a__44 () Int)
(declare-fun a__46 () Int)
(declare-fun a__49 () Int)
(declare-fun a__51 () Int)
(declare-fun a__54 () Int)
(declare-fun a__56 () Int)
(declare-fun a__58 () Int)
(declare-fun a__62 () Int)
(declare-fun a__66 () Int)
(declare-fun a__70 () Int)
(declare-fun a__74 () Int)
(declare-fun a__76 () Int)
(declare-fun a__80 () Int)
(declare-fun a__83 () Int)
(declare-fun a__86 () Int)
(declare-fun a__89 () Int)
(declare-fun a__93 () Int)
(declare-fun a__97 () Int)
(declare-fun a__100 () Int)
(declare-fun a__104 () Int)
(declare-fun a__109 () Int)
(declare-fun a__112 () Int)
(declare-fun a__116 () Int)
(declare-fun a__120 () Int)
(declare-fun a__124 () Int)
(declare-fun a__3 () Int)
(declare-fun a__5 () Int)
(declare-fun a__8 () Int)
(declare-fun a__11 () Int)
(declare-fun a__13 () Int)
(declare-fun a__17 () Int)
(declare-fun a__21 () Int)
(declare-fun a__25 () Int)
(declare-fun a__28 () Int)
(declare-fun a__30 () Int)
(declare-fun a__34 () Int)
(declare-fun a__38 () Int)
(declare-fun a__41 () Int)
(declare-fun a__43 () Int)
(declare-fun a__45 () Int)
(declare-fun a__48 () Int)
(declare-fun a__50 () Int)
(declare-fun a__53 () Int)
(declare-fun a__55 () Int)
(declare-fun a__57 () Int)
(declare-fun a__61 () Int)
(declare-fun a__65 () Int)
(declare-fun a__69 () Int)
(declare-fun a__73 () Int)
(declare-fun a__75 () Int)
(declare-fun a__79 () Int)
(declare-fun a__82 () Int)
(declare-fun a__85 () Int)
(declare-fun a__88 () Int)
(declare-fun a__92 () Int)
(declare-fun a__96 () Int)
(declare-fun a__99 () Int)
(declare-fun a__103 () Int)
(declare-fun a__108 () Int)
(declare-fun a__111 () Int)
(declare-fun a__115 () Int)
(declare-fun a__119 () Int)
(declare-fun a__123 () Int)
(assert (and (>= (+ (* a__4 a__2) (* (- 0 1) a__2)) 0) (>= (+ (* a__6 a__2) (* (- 0 1) a__2)) 0) (>= (+ (* a__9 a__2) (* (- 0 1) a__2)) 0) (>= (+ (* a__12 a__2) (* (- 0 1) a__2)) 0) (>= (+ (* a__14 a__2) (* (- 0 1) a__2)) 0) (>= (+ (* a__18 a__2) (* (- 0 1) a__2)) 0) (>= (+ (* a__22 a__2) (* (- 0 1) a__2)) 0) (>= (+ (* a__26 a__2) (* (- 0 1) a__2)) 0) (>= (+ (* a__29 a__2) (* (- 0 1) a__2)) 0) (>= (+ (* a__31 a__2) (* (- 0 1) a__2)) 0) (>= (+ (* a__35 a__2) (* (- 0 1) a__2)) 0) (>= (+ (* a__39 a__2) (* (- 0 1) a__2)) 0) (>= (+ (* a__42 a__2) (* (- 0 1) a__2)) 0) (>= (+ (* a__44 a__2) (* (- 0 1) a__2)) 0) (>= (+ (* a__46 a__2) (* (- 0 1) a__2)) 0) (>= (+ (* a__49 a__2) (* (- 0 1) a__2)) 0) (>= (+ (* a__51 a__2) (* (- 0 1) a__2)) 0) (>= (+ (* a__54 a__2) (* (- 0 1) a__2)) 0) (>= (+ (* a__56 a__2) (* (- 0 1) a__2)) 0) (>= (+ (* a__58 a__2) (* (- 0 1) a__2)) 0) (>= (+ (* a__62 a__2) (* (- 0 1) a__2)) 0) (>= (+ (* a__66 a__2) (* (- 0 1) a__2)) 0) (>= (+ (* a__70 a__2) (* (- 0 1) a__2)) 0) (>= (+ (* a__74 a__2) (* (- 0 1) a__2)) 0) (>= (+ (* a__76 a__2) (* (- 0 1) a__2)) 0) (>= (+ (* a__80 a__2) (* (- 0 1) a__2)) 0) (>= (+ (* a__83 a__2) (* (- 0 1) a__2)) 0) (>= (+ (* a__86 a__2) (* (- 0 1) a__2)) 0) (>= (+ (* a__89 a__2) (* (- 0 1) a__2)) 0) (>= (+ (* a__93 a__2) (* (- 0 1) a__2)) 0) (>= (+ (* a__97 a__2) (* (- 0 1) a__2)) 0) (>= (+ (* a__100 a__2) (* (- 0 1) a__2)) 0) (>= (+ (* a__104 a__2) (* (- 0 1) a__2)) 0) (>= (+ (* a__109 a__2) (* (- 0 1) a__2)) 0) (>= (+ (* a__112 a__2) (* (- 0 1) a__2)) 0) (>= (+ (* a__116 a__2) (* (- 0 1) a__2)) 0) (>= (+ (* a__120 a__2) (* (- 0 1) a__2)) 0) (>= (+ (* a__124 a__2) (* (- 0 1) a__2)) 0) (>= (* a__3 a__2) 0) (>= (* a__5 a__2) 0) (>= (* a__8 a__2) 0) (>= (* a__11 a__2) 0) (>= (* a__13 a__2) 0) (>= (* a__17 a__2) 0) (>= (* a__21 a__2) 0) (>= (* a__25 a__2) 0) (>= (* a__28 a__2) 0) (>= (* a__30 a__2) 0) (>= (* a__34 a__2) 0) (>= (* a__38 a__2) 0) (>= (* a__41 a__2) 0) (>= (* a__43 a__2) 0) (>= (* a__45 a__2) 0) (>= (* a__48 a__2) 0) (>= (* a__50 a__2) 0) (>= (* a__53 a__2) 0) (>= (* a__55 a__2) 0) (>= (* a__57 a__2) 0) (>= (* a__61 a__2) 0) (>= (* a__65 a__2) 0) (>= (* a__69 a__2) 0) (>= (* a__73 a__2) 0) (>= (* a__75 a__2) 0) (>= (* a__79 a__2) 0) (>= (* a__82 a__2) 0) (>= (* a__85 a__2) 0) (>= (* a__88 a__2) 0) (>= (* a__92 a__2) 0) (>= (* a__96 a__2) 0) (>= (* a__99 a__2) 0) (>= (* a__103 a__2) 0) (>= (* a__108 a__2) 0) (>= (* a__111 a__2) 0) (>= (* a__115 a__2) 0) (>= (* a__119 a__2) 0) (>= (* a__123 a__2) 0) (not (and (= (* a__3 a__2) 0) (= (* a__5 a__2) 0) (= (* a__8 a__2) 0) (= (* a__11 a__2) 0) (= (* a__13 a__2) 0) (= (* a__17 a__2) 0) (= (* a__21 a__2) 0) (= (* a__25 a__2) 0) (= (* a__28 a__2) 0) (= (* a__30 a__2) 0) (= (* a__34 a__2) 0) (= (* a__38 a__2) 0) (= (* a__41 a__2) 0) (= (* a__43 a__2) 0) (= (* a__45 a__2) 0) (= (* a__48 a__2) 0) (= (* a__50 a__2) 0) (= (* a__53 a__2) 0) (= (* a__55 a__2) 0) (= (* a__57 a__2) 0) (= (* a__61 a__2) 0) (= (* a__65 a__2) 0) (= (* a__69 a__2) 0) (= (* a__73 a__2) 0) (= (* a__75 a__2) 0) (= (* a__79 a__2) 0) (= (* a__82 a__2) 0) (= (* a__85 a__2) 0) (= (* a__88 a__2) 0) (= (* a__92 a__2) 0) (= (* a__96 a__2) 0) (= (* a__99 a__2) 0) (= (* a__103 a__2) 0) (= (* a__108 a__2) 0) (= (* a__111 a__2) 0) (= (* a__115 a__2) 0) (= (* a__119 a__2) 0) (= (* a__123 a__2) 0))) (>= a__4 0) (>= a__2 0) (>= a__6 0) (>= a__9 0) (>= a__12 0) (>= a__14 0) (>= a__18 0) (>= a__22 0) (>= a__26 0) (>= a__29 0) (>= a__31 0) (>= a__35 0) (>= a__39 0) (>= a__42 0) (>= a__44 0) (>= a__46 0) (>= a__49 0) (>= a__51 0) (>= a__54 0) (>= a__56 0) (>= a__58 0) (>= a__62 0) (>= a__66 0) (>= a__70 0) (>= a__74 0) (>= a__76 0) (>= a__80 0) (>= a__83 0) (>= a__86 0) (>= a__89 0) (>= a__93 0) (>= a__97 0) (>= a__100 0) (>= a__104 0) (>= a__109 0) (>= a__112 0) (>= a__116 0) (>= a__120 0) (>= a__124 0) (>= a__3 0) (>= a__5 0) (>= a__8 0) (>= a__11 0) (>= a__13 0) (>= a__17 0) (>= a__21 0) (>= a__25 0) (>= a__28 0) (>= a__30 0) (>= a__34 0) (>= a__38 0) (>= a__41 0) (>= a__43 0) (>= a__45 0) (>= a__48 0) (>= a__50 0) (>= a__53 0) (>= a__55 0) (>= a__57 0) (>= a__61 0) (>= a__65 0) (>= a__69 0) (>= a__73 0) (>= a__75 0) (>= a__79 0) (>= a__82 0) (>= a__85 0) (>= a__88 0) (>= a__92 0) (>= a__96 0) (>= a__99 0) (>= a__103 0) (>= a__108 0) (>= a__111 0) (>= a__115 0) (>= a__119 0) (>= a__123 0)))
(assert (<= a__100 100))
(assert (<= a__103 100))
(assert (<= a__104 100))
(assert (<= a__108 100))
(assert (<= a__109 100))
(assert (<= a__11 100))
(assert (<= a__111 100))
(assert (<= a__112 100))
(assert (<= a__115 100))
(assert (<= a__116 100))
(assert (<= a__119 100))
(assert (<= a__12 100))
(assert (<= a__120 100))
(assert (<= a__123 100))
(assert (<= a__124 100))
(assert (<= a__13 100))
(assert (<= a__14 100))
(assert (<= a__17 100))
(assert (<= a__18 100))
(assert (<= a__2 100))
(assert (<= a__21 100))
(assert (<= a__22 100))
(assert (<= a__25 100))
(assert (<= a__26 100))
(assert (<= a__28 100))
(assert (<= a__29 100))
(assert (<= a__3 100))
(assert (<= a__30 100))
(assert (<= a__31 100))
(assert (<= a__34 100))
(assert (<= a__35 100))
(assert (<= a__38 100))
(assert (<= a__39 100))
(assert (<= a__4 100))
(assert (<= a__41 100))
(assert (<= a__42 100))
(assert (<= a__43 100))
(assert (<= a__44 100))
(assert (<= a__45 100))
(assert (<= a__46 100))
(assert (<= a__48 100))
(assert (<= a__49 100))
(assert (<= a__5 100))
(assert (<= a__50 100))
(assert (<= a__51 100))
(assert (<= a__53 100))
(assert (<= a__54 100))
(assert (<= a__55 100))
(assert (<= a__56 100))
(assert (<= a__57 100))
(assert (<= a__58 100))
(assert (<= a__6 100))
(assert (<= a__61 100))
(assert (<= a__62 100))
(assert (<= a__65 100))
(assert (<= a__66 100))
(assert (<= a__69 100))
(assert (<= a__70 100))
(assert (<= a__73 100))
(assert (<= a__74 100))
(assert (<= a__75 100))
(assert (<= a__76 100))
(assert (<= a__79 100))
(assert (<= a__8 100))
(assert (<= a__80 100))
(assert (<= a__82 100))
(assert (<= a__83 100))
(assert (<= a__85 100))
(assert (<= a__86 100))
(assert (<= a__88 100))
(assert (<= a__89 100))
(assert (<= a__9 100))
(assert (<= a__92 100))
(assert (<= a__93 100))
(assert (<= a__96 100))
(assert (<= a__97 100))
(assert (<= a__99 100))
(check-sat)
;;(get-assignment)
;;(get-model)
(exit)
